c FILE                  :testfile.gr
c No. of vertices       :10
c No. of directed edges :7
c Max. weight           :200
c Min. weight           :0
c Min. edge           :0
c Max. edge           :2
p sp 10 7
a 4 3 -64
a 5 4 148
a 5 11 110
a 6 7 -139
a 6 8 -9
a 8 8 -97
a 9 9 143
